42122.7
42007.7
41611.7
41445.4
41445.4
41445.4
41357.9
40762
40762
40762
39901.6
39901.6
39901.6
39901.6
39901.6
39901.6
39786
39786
39756.1
39756.1
38924.6
38924.6
38924.6
38924.6
38924.6
38924.6
38924.6
38924.6
38906.9
38589.5
38589.5
38589.5
38589.5
38555.2
38555.2
38555.2
38555.2
38555.2
38359.8
38359.8
38359.8
38359.8
38359.8
38359.8
38285.5
38285.5
38216.7
38170.9
38045.8
38045.8
37439.8
37439.8
37439.8
36143
36143
36143
36143
35959.3
35959.3
35959.3
35959.3
35959.3
35959.3
35959.3
35959.3
35892.9
35892.9
35892.9
35892.9
35892.9
35892.9
35892.9
35892.9
35892.9
35892.9
35773.5
35773.5
35773.5
35773.5
35773.5
35773.5
35773.5
35773.5
35773.5
35773.5
35773.5
35548.4
35548.4
35548.4
35548.4
35548.4
35548.4
35548.4
35548.4
35548.4
35548.4
35548.4
35511.5
35511.5
35511.5
